NAME : I-n15-k5
CAPACITY : 1009
NODE_COORD_SECTION
1   271   262
2   241   145
3   357   50
4   447   375
5   58   341
6   332   345
7   173   268
8   241   437
9   405   143
10   122   162
11   171   366
12   432   440
13   120   130
14   170   479
15   73   265
DEMAND_SECTION
1   0
2   30
3   82
4   23
5   30
6   31
7   96
8   58
9   80
10   37
11   16
12   59
13   61
14   53
15   42
DEPOT_SECTION
    1
    -1
EOF